(set-info :source |printed by MathSAT|)
(declare-fun hhv_ULTIMATE.start_ULTIMATE.startEXIT_0_Int () Int)
(declare-fun .x.422 () Int)
(declare-fun hhv_ULTIMATE.start_ULTIMATE.startEXIT_1_Array_Int_Int () (Array Int Int))
(declare-fun .x.423 () (Array Int Int))
(declare-fun hhv_ULTIMATE.start_ULTIMATE.startEXIT_2_Array_Int_Int () (Array Int Int))
(declare-fun .x.424 () (Array Int Int))
(declare-fun hhv_ULTIMATE.start_ULTIMATE.startEXIT_3_Array_Int_Array_Int_Int () (Array Int (Array Int Int)))
(declare-fun .x.425 () (Array Int (Array Int Int)))
(declare-fun hhv_ULTIMATE.start_ULTIMATE.startEXIT_4_Int () Int)
(declare-fun .x.426 () Int)
(declare-fun hhv_ULTIMATE.start_ULTIMATE.startEXIT_5_Int () Int)
(declare-fun .x.427 () Int)
(declare-fun hhv_ULTIMATE.start_ULTIMATE.startEXIT_6_Array_Int_Int () (Array Int Int))
(declare-fun .x.428 () (Array Int Int))
(declare-fun hhv_ULTIMATE.start_ULTIMATE.startEXIT_7_Array_Int_Int () (Array Int Int))
(declare-fun .x.429 () (Array Int Int))
(declare-fun hhv_ULTIMATE.start_ULTIMATE.startEXIT_8_Int () Int)
(declare-fun .x.430 () Int)
(declare-fun hhv_ULTIMATE.start_ULTIMATE.startEXIT_9_Int () Int)
(declare-fun .x.431 () Int)
(declare-fun hhv_ULTIMATE.start_ULTIMATE.startEXIT_10_Int () Int)
(declare-fun .x.432 () Int)
(declare-fun hhv_ULTIMATE.start_ULTIMATE.startEXIT_11_Int () Int)
(declare-fun .x.433 () Int)
(declare-fun hhv_ULTIMATE.start_ULTIMATE.startEXIT_12_Int () Int)
(declare-fun .x.434 () Int)
(declare-fun hhv_ULTIMATE.start_ULTIMATE.startEXIT_13_Int () Int)
(declare-fun .x.435 () Int)
(declare-fun hhv_ULTIMATE.start_ULTIMATE.startEXIT_14_Int () Int)
(declare-fun .x.436 () Int)
(declare-fun hhv_ULTIMATE.start_ULTIMATE.startEXIT_15_Int () Int)
(declare-fun .x.437 () Int)
(declare-fun hhv_ULTIMATE.start_ULTIMATE.startEXIT_16_Int () Int)
(declare-fun .x.438 () Int)
(declare-fun hhv_ULTIMATE.start_ULTIMATE.startEXIT_17_Int () Int)
(declare-fun .x.439 () Int)
(declare-fun hhv_ULTIMATE.start_ULTIMATE.startEXIT_18_Int () Int)
(declare-fun .x.440 () Int)
(declare-fun hhv_ULTIMATE.start_ULTIMATE.startEXIT_19_Int () Int)
(declare-fun .x.441 () Int)
(declare-fun hhv_ULTIMATE.start_ULTIMATE.startEXIT_20_Int () Int)
(declare-fun .x.442 () Int)
(declare-fun hhv_ULTIMATE.start_ULTIMATE.startEXIT_21_Int () Int)
(declare-fun .x.443 () Int)
(declare-fun hhv_ULTIMATE.start_ULTIMATE.startEXIT_22_Int () Int)
(declare-fun .x.444 () Int)
(declare-fun hhv_ULTIMATE.start_ULTIMATE.startEXIT_23_Int () Int)
(declare-fun .x.445 () Int)
(declare-fun hhv_ULTIMATE.start_ULTIMATE.startEXIT_24_Int () Int)
(declare-fun .x.446 () Int)
(declare-fun hhv_ULTIMATE.start_ULTIMATE.startEXIT_25_Int () Int)
(declare-fun .x.447 () Int)
(declare-fun hbv_ULTIMATE.start_L2-1_26_Bool () Bool)
(declare-fun hhv_ULTIMATE.start_ULTIMATE.startEXIT_26_Bool () Bool)
(declare-fun .loc.5 () Bool)
(declare-fun .loc.9 () Bool)
(declare-fun .loc.6 () Bool)
(declare-fun .loc.10 () Bool)
(declare-fun .loc.7 () Bool)
(declare-fun .loc.11 () Bool)
(declare-fun .loc.8 () Bool)
(declare-fun .loc.12 () Bool)
(declare-fun hbv_ULTIMATE.start_L9_20_Int () Int)
(declare-fun hbv_ULTIMATE.start_L9_19_Int () Int)
(declare-fun hbv_ULTIMATE.start_L-1_1_Array_Int_Int () (Array Int Int))
(define-fun .def_8 () Int (! hhv_ULTIMATE.start_ULTIMATE.startEXIT_0_Int :next |.x.422|))
(define-fun .def_10 () (Array Int Int) (! hhv_ULTIMATE.start_ULTIMATE.startEXIT_1_Array_Int_Int :next |.x.423|))
(define-fun .def_12 () (Array Int Int) (! hhv_ULTIMATE.start_ULTIMATE.startEXIT_2_Array_Int_Int :next |.x.424|))
(define-fun .def_14 () (Array Int (Array Int Int)) (! hhv_ULTIMATE.start_ULTIMATE.startEXIT_3_Array_Int_Array_Int_Int :next |.x.425|))
(define-fun .def_16 () Int (! hhv_ULTIMATE.start_ULTIMATE.startEXIT_4_Int :next |.x.426|))
(define-fun .def_18 () Int (! hhv_ULTIMATE.start_ULTIMATE.startEXIT_5_Int :next |.x.427|))
(define-fun .def_20 () (Array Int Int) (! hhv_ULTIMATE.start_ULTIMATE.startEXIT_6_Array_Int_Int :next |.x.428|))
(define-fun .def_22 () (Array Int Int) (! hhv_ULTIMATE.start_ULTIMATE.startEXIT_7_Array_Int_Int :next |.x.429|))
(define-fun .def_24 () Int (! hhv_ULTIMATE.start_ULTIMATE.startEXIT_8_Int :next |.x.430|))
(define-fun .def_26 () Int (! hhv_ULTIMATE.start_ULTIMATE.startEXIT_9_Int :next |.x.431|))
(define-fun .def_28 () Int (! hhv_ULTIMATE.start_ULTIMATE.startEXIT_10_Int :next |.x.432|))
(define-fun .def_30 () Int (! hhv_ULTIMATE.start_ULTIMATE.startEXIT_11_Int :next |.x.433|))
(define-fun .def_32 () Int (! hhv_ULTIMATE.start_ULTIMATE.startEXIT_12_Int :next |.x.434|))
(define-fun .def_34 () Int (! hhv_ULTIMATE.start_ULTIMATE.startEXIT_13_Int :next |.x.435|))
(define-fun .def_36 () Int (! hhv_ULTIMATE.start_ULTIMATE.startEXIT_14_Int :next |.x.436|))
(define-fun .def_38 () Int (! hhv_ULTIMATE.start_ULTIMATE.startEXIT_15_Int :next |.x.437|))
(define-fun .def_40 () Int (! hhv_ULTIMATE.start_ULTIMATE.startEXIT_16_Int :next |.x.438|))
(define-fun .def_42 () Int (! hhv_ULTIMATE.start_ULTIMATE.startEXIT_17_Int :next |.x.439|))
(define-fun .def_44 () Int (! hhv_ULTIMATE.start_ULTIMATE.startEXIT_18_Int :next |.x.440|))
(define-fun .def_46 () Int (! hhv_ULTIMATE.start_ULTIMATE.startEXIT_19_Int :next |.x.441|))
(define-fun .def_48 () Int (! hhv_ULTIMATE.start_ULTIMATE.startEXIT_20_Int :next |.x.442|))
(define-fun .def_50 () Int (! hhv_ULTIMATE.start_ULTIMATE.startEXIT_21_Int :next |.x.443|))
(define-fun .def_52 () Int (! hhv_ULTIMATE.start_ULTIMATE.startEXIT_22_Int :next |.x.444|))
(define-fun .def_54 () Int (! hhv_ULTIMATE.start_ULTIMATE.startEXIT_23_Int :next |.x.445|))
(define-fun .def_56 () Int (! hhv_ULTIMATE.start_ULTIMATE.startEXIT_24_Int :next |.x.446|))
(define-fun .def_58 () Int (! hhv_ULTIMATE.start_ULTIMATE.startEXIT_25_Int :next |.x.447|))
(define-fun .def_60 () Bool (! hbv_ULTIMATE.start_L2-1_26_Bool :next |hhv_ULTIMATE.start_ULTIMATE.startEXIT_26_Bool|))
(define-fun .def_62 () Bool (! .loc.5 :next |.loc.9|))
(define-fun .def_64 () Bool (! .loc.6 :next |.loc.10|))
(define-fun .def_66 () Bool (! .loc.7 :next |.loc.11|))
(define-fun .def_68 () Bool (! .loc.8 :next |.loc.12|))
(define-fun .def_125 () Int (! hbv_ULTIMATE.start_L9_20_Int :next |.xtv.1|))
(define-fun .def_134 () Int (! hbv_ULTIMATE.start_L9_19_Int :next |.xtv.2|))
(define-fun .def_178 () (Array Int Int) (! hbv_ULTIMATE.start_L-1_1_Array_Int_Int :next |.xtv.3|))
(define-fun .def_174 () Bool (not .def_62))
(define-fun .def_524 () Bool (and .def_64 .def_174))
(define-fun .def_114 () Bool (not .def_66))
(define-fun .def_525 () Bool (and .def_114 .def_524))
(define-fun .def_107 () Bool (not .def_68))
(define-fun .def_526 () Bool (and .def_107 .def_525))
(define-fun .def_519 () Bool (not .def_60))
(define-fun .def_518 () Bool (= .def_10 .def_12))
(define-fun .def_520 () Bool (and .def_518 .def_519))
(define-fun .def_517 () Bool (= .def_20 .def_22))
(define-fun .def_521 () Bool (and .def_517 .def_520))
(define-fun .def_516 () Bool (= .def_24 .def_26))
(define-fun .def_522 () Bool (and .def_516 .def_521))
(define-fun .def_515 () Bool (= .def_16 .def_18))
(define-fun .def_523 () Bool (and .def_515 .def_522))
(define-fun .def_527 () Bool (! (and .def_523 .def_526) :init true))
(define-fun .def_512 () Bool (= .def_26 .x.431))
(define-fun .def_510 () Bool (= .def_22 .x.429))
(define-fun .def_508 () Bool (= .def_18 .x.427))
(define-fun .def_506 () Bool (= .def_14 .x.425))
(define-fun .def_504 () Bool (= .def_8 .x.422))
(define-fun .def_503 () Bool (= .def_12 .x.424))
(define-fun .def_505 () Bool (and .def_503 .def_504))
(define-fun .def_507 () Bool (and .def_505 .def_506))
(define-fun .def_509 () Bool (and .def_507 .def_508))
(define-fun .def_511 () Bool (and .def_509 .def_510))
(define-fun .def_513 () Bool (and .def_511 .def_512))
(define-fun .def_71 () Bool (= .def_10 .x.423))
(define-fun .def_471 () Bool (and hhv_ULTIMATE.start_ULTIMATE.startEXIT_26_Bool .def_71))
(define-fun .def_77 () Bool (= .def_28 .x.432))
(define-fun .def_472 () Bool (and .def_77 .def_471))
(define-fun .def_87 () Bool (= .def_38 .x.437))
(define-fun .def_473 () Bool (and .def_87 .def_472))
(define-fun .def_91 () Bool (= .def_42 .x.439))
(define-fun .def_474 () Bool (and .def_91 .def_473))
(define-fun .def_93 () Bool (= .def_44 .x.440))
(define-fun .def_475 () Bool (and .def_93 .def_474))
(define-fun .def_95 () Bool (= .def_50 .x.443))
(define-fun .def_476 () Bool (and .def_95 .def_475))
(define-fun .def_99 () Bool (= .def_54 .x.445))
(define-fun .def_477 () Bool (and .def_99 .def_476))
(define-fun .def_478 () Bool (and .def_62 .def_477))
(define-fun .def_479 () Bool (and .def_64 .def_478))
(define-fun .def_480 () Bool (and .def_66 .def_479))
(define-fun .def_481 () Bool (and .def_107 .def_480))
(define-fun .def_467 () Bool (= .x.440 0))
(define-fun .def_464 () (Array Int Int) (store .def_10 .def_42 0))
(define-fun .def_465 () (Array Int Int) (store .def_464 .def_50 0))
(define-fun .def_466 () Bool (= .x.423 .def_465))
(define-fun .def_468 () Bool (and .def_466 .def_467))
(define-fun .def_469 () Bool (or .def_60 .def_468))
(define-fun .def_460 () Bool (= .x.437 .x.440))
(define-fun .def_461 () Bool (or hhv_ULTIMATE.start_ULTIMATE.startEXIT_26_Bool .def_460))
(define-fun .def_457 () Bool (and .def_68 .def_114))
(define-fun .def_296 () Bool (not .def_64))
(define-fun .def_458 () Bool (and .def_296 .def_457))
(define-fun .def_459 () Bool (and .def_174 .def_458))
(define-fun .def_462 () Bool (and .def_459 .def_461))
(define-fun .def_116 () Bool (= .def_60 hhv_ULTIMATE.start_ULTIMATE.startEXIT_26_Bool))
(define-fun .def_463 () Bool (and .def_116 .def_462))
(define-fun .def_470 () Bool (and .def_463 .def_469))
(define-fun .def_482 () Bool (or .def_470 .def_481))
(define-fun .def_110 () Bool (not .loc.10))
(define-fun .def_455 () Bool (and .loc.12 .def_110))
(define-fun .def_112 () Bool (not .loc.11))
(define-fun .def_456 () Bool (and .def_112 .def_455))
(define-fun .def_483 () Bool (and .def_456 .def_482))
(define-fun .def_277 () Bool (= .def_30 0))
(define-fun .def_453 () Bool (or .def_60 .def_277))
(define-fun .def_255 () Bool (and .def_71 .def_77))
(define-fun .def_408 () Bool (and .def_87 .def_255))
(define-fun .def_409 () Bool (and .def_91 .def_408))
(define-fun .def_410 () Bool (and .def_93 .def_409))
(define-fun .def_411 () Bool (and .def_95 .def_410))
(define-fun .def_412 () Bool (and .def_99 .def_411))
(define-fun .def_445 () Bool (and .def_64 .def_412))
(define-fun .def_446 () Bool (and .def_66 .def_445))
(define-fun .def_447 () Bool (and .def_107 .def_446))
(define-fun .def_448 () Bool (and .loc.10 .def_447))
(define-fun .def_449 () Bool (and .loc.11 .def_448))
(define-fun .def_450 () Bool (and .def_174 .def_449))
(define-fun .def_451 () Bool (and .def_116 .def_450))
(define-fun .def_118 () Bool (not .loc.12))
(define-fun .def_452 () Bool (and .def_118 .def_451))
(define-fun .def_454 () Bool (and .def_452 .def_453))
(define-fun .def_484 () Bool (or .def_454 .def_483))
(define-fun .def_97 () Bool (= .def_52 .x.444))
(define-fun .def_79 () Bool (= .def_30 .x.433))
(define-fun .def_441 () Bool (and .def_79 .def_97))
(define-fun .def_101 () Bool (= .def_56 .x.446))
(define-fun .def_442 () Bool (and .def_101 .def_441))
(define-fun .def_103 () Bool (= .def_58 .x.447))
(define-fun .def_443 () Bool (and .def_103 .def_442))
(define-fun .def_444 () Bool (and .loc.9 .def_443))
(define-fun .def_485 () Bool (and .def_444 .def_484))
(define-fun .def_429 () Int (* 4 .def_36))
(define-fun .def_435 () Int (+ .def_429 .def_54))
(define-fun .def_131 () (Array Int Int) (select .def_14 .def_50))
(define-fun .def_436 () Int (select .def_131 .def_435))
(define-fun .def_437 () Bool (= .x.446 .def_436))
(define-fun .def_430 () Int (+ .def_28 .def_429))
(define-fun .def_123 () (Array Int Int) (select .def_14 .def_42))
(define-fun .def_431 () Int (select .def_123 .def_430))
(define-fun .def_432 () Bool (= .x.447 .def_431))
(define-fun .def_342 () Bool (<= 100000 .def_36))
(define-fun .def_427 () Bool (not .def_342))
(define-fun .def_425 () Bool (= .x.433 .x.444))
(define-fun .def_422 () Bool (= .x.446 .x.447))
(define-fun .def_423 () Int (ite .def_422 1 0))
(define-fun .def_424 () Bool (= .x.444 .def_423))
(define-fun .def_426 () Bool (and .def_424 .def_425))
(define-fun .def_428 () Bool (and .def_426 .def_427))
(define-fun .def_433 () Bool (and .def_428 .def_432))
(define-fun .def_438 () Bool (and .def_433 .def_437))
(define-fun .def_439 () Bool (or .def_60 .def_438))
(define-fun .def_413 () Bool (and .def_62 .def_412))
(define-fun .def_414 () Bool (and .def_66 .def_413))
(define-fun .def_415 () Bool (and .def_107 .def_414))
(define-fun .def_416 () Bool (and .loc.10 .def_415))
(define-fun .def_417 () Bool (and .loc.11 .def_416))
(define-fun .def_418 () Bool (and .def_296 .def_417))
(define-fun .def_419 () Bool (and .def_116 .def_418))
(define-fun .def_420 () Bool (and .def_118 .def_419))
(define-fun .def_253 () Bool (not .loc.9))
(define-fun .def_421 () Bool (and .def_253 .def_420))
(define-fun .def_440 () Bool (and .def_421 .def_439))
(define-fun .def_486 () Bool (or .def_440 .def_485))
(define-fun .def_85 () Bool (= .def_36 .x.436))
(define-fun .def_81 () Bool (= .def_32 .x.434))
(define-fun .def_407 () Bool (and .def_81 .def_85))
(define-fun .def_487 () Bool (and .def_407 .def_486))
(define-fun .def_402 () Int (* (- 1) .x.436))
(define-fun .def_403 () Int (+ .def_36 .def_402))
(define-fun .def_404 () Bool (= .def_403 (- 1)))
(define-fun .def_405 () Bool (or hhv_ULTIMATE.start_ULTIMATE.startEXIT_26_Bool .def_404))
(define-fun .def_256 () Bool (and .def_79 .def_255))
(define-fun .def_387 () Bool (and .def_87 .def_256))
(define-fun .def_388 () Bool (and .def_91 .def_387))
(define-fun .def_389 () Bool (and .def_93 .def_388))
(define-fun .def_390 () Bool (and .def_95 .def_389))
(define-fun .def_391 () Bool (and .def_97 .def_390))
(define-fun .def_392 () Bool (and .def_99 .def_391))
(define-fun .def_393 () Bool (and .def_107 .def_392))
(define-fun .def_394 () Bool (and .loc.9 .def_393))
(define-fun .def_395 () Bool (and .loc.11 .def_394))
(define-fun .def_396 () Bool (and .def_110 .def_395))
(define-fun .def_397 () Bool (and .def_114 .def_396))
(define-fun .def_398 () Bool (and .def_296 .def_397))
(define-fun .def_399 () Bool (and .def_174 .def_398))
(define-fun .def_400 () Bool (and .def_116 .def_399))
(define-fun .def_401 () Bool (and .def_118 .def_400))
(define-fun .def_406 () Bool (and .def_401 .def_405))
(define-fun .def_488 () Bool (or .def_406 .def_487))
(define-fun .def_362 () Bool (= .def_40 0))
(define-fun .def_383 () Bool (not .def_362))
(define-fun .def_382 () Bool (= .x.436 0))
(define-fun .def_384 () Bool (and .def_382 .def_383))
(define-fun .def_385 () Bool (or .def_60 .def_384))
(define-fun .def_257 () Bool (and .def_81 .def_256))
(define-fun .def_365 () Bool (and .def_87 .def_257))
(define-fun .def_366 () Bool (and .def_91 .def_365))
(define-fun .def_367 () Bool (and .def_93 .def_366))
(define-fun .def_368 () Bool (and .def_95 .def_367))
(define-fun .def_369 () Bool (and .def_97 .def_368))
(define-fun .def_370 () Bool (and .def_99 .def_369))
(define-fun .def_371 () Bool (and .def_101 .def_370))
(define-fun .def_372 () Bool (and .def_103 .def_371))
(define-fun .def_373 () Bool (and .def_66 .def_372))
(define-fun .def_374 () Bool (and .def_107 .def_373))
(define-fun .def_375 () Bool (and .loc.9 .def_374))
(define-fun .def_376 () Bool (and .loc.11 .def_375))
(define-fun .def_377 () Bool (and .def_110 .def_376))
(define-fun .def_378 () Bool (and .def_296 .def_377))
(define-fun .def_379 () Bool (and .def_174 .def_378))
(define-fun .def_380 () Bool (and .def_116 .def_379))
(define-fun .def_381 () Bool (and .def_118 .def_380))
(define-fun .def_386 () Bool (and .def_381 .def_385))
(define-fun .def_489 () Bool (or .def_386 .def_488))
(define-fun .def_363 () Bool (or .def_60 .def_362))
(define-fun .def_281 () Bool (and .def_85 .def_257))
(define-fun .def_282 () Bool (and .def_87 .def_281))
(define-fun .def_283 () Bool (and .def_91 .def_282))
(define-fun .def_284 () Bool (and .def_93 .def_283))
(define-fun .def_285 () Bool (and .def_95 .def_284))
(define-fun .def_286 () Bool (and .def_97 .def_285))
(define-fun .def_287 () Bool (and .def_99 .def_286))
(define-fun .def_288 () Bool (and .def_101 .def_287))
(define-fun .def_289 () Bool (and .def_103 .def_288))
(define-fun .def_353 () Bool (and .def_66 .def_289))
(define-fun .def_354 () Bool (and .def_107 .def_353))
(define-fun .def_355 () Bool (and .loc.12 .def_354))
(define-fun .def_356 () Bool (and .def_110 .def_355))
(define-fun .def_357 () Bool (and .def_112 .def_356))
(define-fun .def_358 () Bool (and .def_296 .def_357))
(define-fun .def_359 () Bool (and .def_174 .def_358))
(define-fun .def_360 () Bool (and .def_116 .def_359))
(define-fun .def_361 () Bool (and .def_253 .def_360))
(define-fun .def_364 () Bool (and .def_361 .def_363))
(define-fun .def_490 () Bool (or .def_364 .def_489))
(define-fun .def_231 () Bool (and .def_60 .def_71))
(define-fun .def_232 () Bool (and .def_77 .def_231))
(define-fun .def_233 () Bool (and .def_79 .def_232))
(define-fun .def_234 () Bool (and .def_81 .def_233))
(define-fun .def_316 () Bool (and .def_85 .def_234))
(define-fun .def_317 () Bool (and .def_87 .def_316))
(define-fun .def_318 () Bool (and .def_91 .def_317))
(define-fun .def_319 () Bool (and .def_93 .def_318))
(define-fun .def_320 () Bool (and .def_95 .def_319))
(define-fun .def_321 () Bool (and .def_97 .def_320))
(define-fun .def_322 () Bool (and .def_99 .def_321))
(define-fun .def_323 () Bool (and .def_101 .def_322))
(define-fun .def_324 () Bool (and .def_103 .def_323))
(define-fun .def_325 () Bool (and .def_62 .def_324))
(define-fun .def_345 () Bool (and .def_66 .def_325))
(define-fun .def_346 () Bool (and .def_107 .def_345))
(define-fun .def_347 () Bool (and .loc.12 .def_346))
(define-fun .def_348 () Bool (and .def_110 .def_347))
(define-fun .def_349 () Bool (and .def_112 .def_348))
(define-fun .def_350 () Bool (and .def_296 .def_349))
(define-fun .def_351 () Bool (and .def_116 .def_350))
(define-fun .def_352 () Bool (and .def_253 .def_351))
(define-fun .def_491 () Bool (or .def_352 .def_490))
(define-fun .def_343 () Bool (or .def_60 .def_342))
(define-fun .def_290 () Bool (and .def_62 .def_289))
(define-fun .def_334 () Bool (and .def_66 .def_290))
(define-fun .def_335 () Bool (and .def_107 .def_334))
(define-fun .def_336 () Bool (and .loc.12 .def_335))
(define-fun .def_337 () Bool (and .def_110 .def_336))
(define-fun .def_338 () Bool (and .def_112 .def_337))
(define-fun .def_339 () Bool (and .def_296 .def_338))
(define-fun .def_340 () Bool (and .def_116 .def_339))
(define-fun .def_341 () Bool (and .def_253 .def_340))
(define-fun .def_344 () Bool (and .def_341 .def_343))
(define-fun .def_492 () Bool (or .def_344 .def_491))
(define-fun .def_326 () Bool (and .def_64 .def_325))
(define-fun .def_327 () Bool (and .def_107 .def_326))
(define-fun .def_328 () Bool (and .loc.11 .def_327))
(define-fun .def_329 () Bool (and .def_110 .def_328))
(define-fun .def_330 () Bool (and .def_114 .def_329))
(define-fun .def_331 () Bool (and .def_116 .def_330))
(define-fun .def_332 () Bool (and .def_118 .def_331))
(define-fun .def_333 () Bool (and .def_253 .def_332))
(define-fun .def_493 () Bool (or .def_333 .def_492))
(define-fun .def_128 () Bool (<= 100000 .def_34))
(define-fun .def_314 () Bool (or .def_60 .def_128))
(define-fun .def_306 () Bool (and .def_64 .def_290))
(define-fun .def_307 () Bool (and .def_107 .def_306))
(define-fun .def_308 () Bool (and .loc.11 .def_307))
(define-fun .def_309 () Bool (and .def_110 .def_308))
(define-fun .def_310 () Bool (and .def_114 .def_309))
(define-fun .def_311 () Bool (and .def_116 .def_310))
(define-fun .def_312 () Bool (and .def_118 .def_311))
(define-fun .def_313 () Bool (and .def_253 .def_312))
(define-fun .def_315 () Bool (and .def_313 .def_314))
(define-fun .def_494 () Bool (or .def_315 .def_493))
(define-fun .def_83 () Bool (= .def_34 .x.435))
(define-fun .def_495 () Bool (and .def_83 .def_494))
(define-fun .def_301 () Int (* (- 1) .x.435))
(define-fun .def_302 () Int (+ .def_34 .def_301))
(define-fun .def_303 () Bool (= .def_302 (- 1)))
(define-fun .def_304 () Bool (or .def_60 .def_303))
(define-fun .def_291 () Bool (and .def_107 .def_290))
(define-fun .def_292 () Bool (and .loc.9 .def_291))
(define-fun .def_293 () Bool (and .loc.10 .def_292))
(define-fun .def_294 () Bool (and .def_112 .def_293))
(define-fun .def_295 () Bool (and .def_114 .def_294))
(define-fun .def_297 () Bool (and .def_295 .def_296))
(define-fun .def_298 () Bool (and .def_116 .def_297))
(define-fun .def_299 () Bool (and .def_118 .def_298))
(define-fun .def_305 () Bool (and .def_299 .def_304))
(define-fun .def_496 () Bool (or .def_305 .def_495))
(define-fun .def_278 () Bool (not .def_277))
(define-fun .def_279 () Bool (or .def_60 .def_278))
(define-fun .def_258 () Bool (and .def_83 .def_257))
(define-fun .def_259 () Bool (and .def_85 .def_258))
(define-fun .def_260 () Bool (and .def_87 .def_259))
(define-fun .def_261 () Bool (and .def_91 .def_260))
(define-fun .def_262 () Bool (and .def_93 .def_261))
(define-fun .def_263 () Bool (and .def_95 .def_262))
(define-fun .def_264 () Bool (and .def_97 .def_263))
(define-fun .def_265 () Bool (and .def_99 .def_264))
(define-fun .def_266 () Bool (and .def_101 .def_265))
(define-fun .def_267 () Bool (and .def_103 .def_266))
(define-fun .def_268 () Bool (and .def_64 .def_267))
(define-fun .def_269 () Bool (and .def_66 .def_268))
(define-fun .def_270 () Bool (and .def_107 .def_269))
(define-fun .def_271 () Bool (and .def_110 .def_270))
(define-fun .def_272 () Bool (and .def_112 .def_271))
(define-fun .def_273 () Bool (and .def_174 .def_272))
(define-fun .def_274 () Bool (and .def_116 .def_273))
(define-fun .def_275 () Bool (and .def_118 .def_274))
(define-fun .def_276 () Bool (and .def_253 .def_275))
(define-fun .def_280 () Bool (and .def_276 .def_279))
(define-fun .def_497 () Bool (or .def_280 .def_496))
(define-fun .def_235 () Bool (and .def_83 .def_234))
(define-fun .def_236 () Bool (and .def_85 .def_235))
(define-fun .def_237 () Bool (and .def_87 .def_236))
(define-fun .def_238 () Bool (and .def_91 .def_237))
(define-fun .def_239 () Bool (and .def_93 .def_238))
(define-fun .def_240 () Bool (and .def_95 .def_239))
(define-fun .def_241 () Bool (and .def_97 .def_240))
(define-fun .def_242 () Bool (and .def_99 .def_241))
(define-fun .def_243 () Bool (and .def_101 .def_242))
(define-fun .def_244 () Bool (and .def_103 .def_243))
(define-fun .def_245 () Bool (and .def_62 .def_244))
(define-fun .def_246 () Bool (and .def_64 .def_245))
(define-fun .def_247 () Bool (and .def_66 .def_246))
(define-fun .def_248 () Bool (and .def_107 .def_247))
(define-fun .def_249 () Bool (and .def_110 .def_248))
(define-fun .def_250 () Bool (and .def_112 .def_249))
(define-fun .def_251 () Bool (and .def_116 .def_250))
(define-fun .def_252 () Bool (and .def_118 .def_251))
(define-fun .def_254 () Bool (and .def_252 .def_253))
(define-fun .def_498 () Bool (or .def_254 .def_497))
(define-fun .def_229 () Bool (= .def_48 .x.442))
(define-fun .def_227 () Bool (= .def_46 .x.441))
(define-fun .def_73 () Bool (= .def_20 .x.428))
(define-fun .def_70 () Bool (= .def_16 .x.426))
(define-fun .def_224 () Bool (and .def_70 .def_73))
(define-fun .def_75 () Bool (= .def_24 .x.430))
(define-fun .def_225 () Bool (and .def_75 .def_224))
(define-fun .def_89 () Bool (= .def_40 .x.438))
(define-fun .def_226 () Bool (and .def_89 .def_225))
(define-fun .def_228 () Bool (and .def_226 .def_227))
(define-fun .def_230 () Bool (and .def_228 .def_229))
(define-fun .def_499 () Bool (and .def_230 .def_498))
(define-fun .def_219 () Bool (= .x.426 0))
(define-fun .def_218 () Bool (= .x.430 0))
(define-fun .def_220 () Bool (and .def_218 .def_219))
(define-fun .def_216 () (Array Int Int) (store .def_10 0 0))
(define-fun .def_217 () Bool (= .def_178 .def_216))
(define-fun .def_221 () Bool (and .def_217 .def_220))
(define-fun .def_222 () Bool (or .def_60 .def_221))
(define-fun .def_201 () Bool (<= .x.422 .x.439))
(define-fun .def_202 () Bool (not .def_201))
(define-fun .def_199 () Bool (= .x.443 0))
(define-fun .def_200 () Bool (not .def_199))
(define-fun .def_203 () Bool (and .def_200 .def_202))
(define-fun .def_197 () Bool (<= .x.422 .x.443))
(define-fun .def_198 () Bool (not .def_197))
(define-fun .def_204 () Bool (and .def_198 .def_203))
(define-fun .def_196 () Bool (= .x.445 0))
(define-fun .def_205 () Bool (and .def_196 .def_204))
(define-fun .def_195 () Bool (= .x.438 1))
(define-fun .def_206 () Bool (and .def_195 .def_205))
(define-fun .def_194 () Bool (= .x.435 0))
(define-fun .def_207 () Bool (and .def_194 .def_206))
(define-fun .def_191 () (Array Int Int) (store .def_20 .x.439 400000))
(define-fun .def_192 () (Array Int Int) (store .def_191 .x.443 400000))
(define-fun .def_193 () Bool (= .x.428 .def_192))
(define-fun .def_208 () Bool (and .def_193 .def_207))
(define-fun .def_185 () (Array Int Int) (store .def_178 .x.439 1))
(define-fun .def_188 () (Array Int Int) (store .def_185 .x.443 1))
(define-fun .def_189 () Bool (= .x.423 .def_188))
(define-fun .def_209 () Bool (and .def_189 .def_208))
(define-fun .def_186 () Int (select .def_185 .x.443))
(define-fun .def_187 () Bool (= .def_186 0))
(define-fun .def_210 () Bool (and .def_187 .def_209))
(define-fun .def_182 () Bool (= .x.439 0))
(define-fun .def_183 () Bool (not .def_182))
(define-fun .def_211 () Bool (and .def_183 .def_210))
(define-fun .def_181 () Bool (= .x.432 0))
(define-fun .def_212 () Bool (and .def_181 .def_211))
(define-fun .def_179 () Int (select .def_178 .x.439))
(define-fun .def_180 () Bool (= .def_179 0))
(define-fun .def_213 () Bool (and .def_180 .def_212))
(define-fun .def_214 () Bool (or hhv_ULTIMATE.start_ULTIMATE.startEXIT_26_Bool .def_213))
(define-fun .def_166 () Bool (and .def_79 .def_87))
(define-fun .def_167 () Bool (and .def_97 .def_166))
(define-fun .def_168 () Bool (and .def_64 .def_167))
(define-fun .def_169 () Bool (and .def_107 .def_168))
(define-fun .def_170 () Bool (and .loc.9 .def_169))
(define-fun .def_171 () Bool (and .loc.10 .def_170))
(define-fun .def_172 () Bool (and .def_112 .def_171))
(define-fun .def_173 () Bool (and .def_114 .def_172))
(define-fun .def_175 () Bool (and .def_173 .def_174))
(define-fun .def_176 () Bool (and .def_116 .def_175))
(define-fun .def_177 () Bool (and .def_118 .def_176))
(define-fun .def_215 () Bool (and .def_177 .def_214))
(define-fun .def_223 () Bool (and .def_215 .def_222))
(define-fun .def_500 () Bool (or .def_223 .def_499))
(define-fun .def_140 () Bool (= .def_125 .def_134))
(define-fun .def_161 () Bool (not .def_140))
(define-fun .def_160 () Bool (= .x.438 0))
(define-fun .def_162 () Bool (and .def_160 .def_161))
(define-fun .def_163 () Bool (or hhv_ULTIMATE.start_ULTIMATE.startEXIT_26_Bool .def_162))
(define-fun .def_72 () Bool (and .def_70 .def_71))
(define-fun .def_74 () Bool (and .def_72 .def_73))
(define-fun .def_76 () Bool (and .def_74 .def_75))
(define-fun .def_78 () Bool (and .def_76 .def_77))
(define-fun .def_80 () Bool (and .def_78 .def_79))
(define-fun .def_82 () Bool (and .def_80 .def_81))
(define-fun .def_84 () Bool (and .def_82 .def_83))
(define-fun .def_86 () Bool (and .def_84 .def_85))
(define-fun .def_88 () Bool (and .def_86 .def_87))
(define-fun .def_143 () Bool (and .def_88 .def_91))
(define-fun .def_144 () Bool (and .def_93 .def_143))
(define-fun .def_145 () Bool (and .def_95 .def_144))
(define-fun .def_146 () Bool (and .def_97 .def_145))
(define-fun .def_147 () Bool (and .def_99 .def_146))
(define-fun .def_148 () Bool (and .def_101 .def_147))
(define-fun .def_149 () Bool (and .def_103 .def_148))
(define-fun .def_150 () Bool (and .def_62 .def_149))
(define-fun .def_151 () Bool (and .def_64 .def_150))
(define-fun .def_152 () Bool (and .def_107 .def_151))
(define-fun .def_153 () Bool (and .loc.9 .def_152))
(define-fun .def_154 () Bool (and .def_110 .def_153))
(define-fun .def_155 () Bool (and .def_112 .def_154))
(define-fun .def_156 () Bool (and .def_114 .def_155))
(define-fun .def_157 () Bool (and .def_116 .def_156))
(define-fun .def_158 () Bool (and .def_118 .def_157))
(define-fun .def_164 () Bool (and .def_158 .def_163))
(define-fun .def_121 () Int (* 4 .def_34))
(define-fun .def_132 () Int (+ .def_121 .def_54))
(define-fun .def_133 () Int (select .def_131 .def_132))
(define-fun .def_135 () Bool (= .def_133 .def_134))
(define-fun .def_129 () Bool (not .def_128))
(define-fun .def_136 () Bool (and .def_129 .def_135))
(define-fun .def_122 () Int (+ .def_28 .def_121))
(define-fun .def_124 () Int (select .def_123 .def_122))
(define-fun .def_126 () Bool (= .def_124 .def_125))
(define-fun .def_137 () Bool (and .def_126 .def_136))
(define-fun .def_138 () Bool (or .def_60 .def_137))
(define-fun .def_165 () Bool (and .def_138 .def_164))
(define-fun .def_501 () Bool (or .def_165 .def_500))
(define-fun .def_141 () Bool (or hhv_ULTIMATE.start_ULTIMATE.startEXIT_26_Bool .def_140))
(define-fun .def_90 () Bool (and .def_88 .def_89))
(define-fun .def_92 () Bool (and .def_90 .def_91))
(define-fun .def_94 () Bool (and .def_92 .def_93))
(define-fun .def_96 () Bool (and .def_94 .def_95))
(define-fun .def_98 () Bool (and .def_96 .def_97))
(define-fun .def_100 () Bool (and .def_98 .def_99))
(define-fun .def_102 () Bool (and .def_100 .def_101))
(define-fun .def_104 () Bool (and .def_102 .def_103))
(define-fun .def_105 () Bool (and .def_62 .def_104))
(define-fun .def_106 () Bool (and .def_64 .def_105))
(define-fun .def_108 () Bool (and .def_106 .def_107))
(define-fun .def_109 () Bool (and .loc.9 .def_108))
(define-fun .def_111 () Bool (and .def_109 .def_110))
(define-fun .def_113 () Bool (and .def_111 .def_112))
(define-fun .def_115 () Bool (and .def_113 .def_114))
(define-fun .def_117 () Bool (and .def_115 .def_116))
(define-fun .def_119 () Bool (and .def_117 .def_118))
(define-fun .def_139 () Bool (and .def_119 .def_138))
(define-fun .def_142 () Bool (and .def_139 .def_141))
(define-fun .def_502 () Bool (or .def_142 .def_501))
(define-fun .def_514 () Bool (! (and .def_502 .def_513) :trans true))
(define-fun .def_528 () Bool (and .def_62 .def_296))
(define-fun .def_529 () Bool (and .def_114 .def_528))
(define-fun .def_530 () Bool (and .def_68 .def_529))
(define-fun .def_531 () Bool (and .def_60 .def_530))
(define-fun .def_532 () Bool (! (not .def_531) :invar-property 0))
(assert true)
